Pd  H
1.0
        5.5012907982         0.0000000000         0.0000000000
        2.7506453991         4.7642575848         0.0000000000
        0.0000000000         0.0000000000        21.7376785278
   Pd    H
   16    1
Cartesian
     0.000000000         0.000000000         0.000000000
     2.750645399         0.000000000         0.000000000
     1.375322700         2.382128792         0.000000000
     4.125968099         2.382128792         0.000000000
     1.375322741         0.794042954         1.328894624
     4.125968222         0.794042954         1.328894624
     2.750645481         3.176171818         1.328894624
     5.501290962         3.176171818         1.328894624
     5.501290716         1.588085909         2.657789249
     2.750645481         1.588085909         2.657789249
     6.876613334         3.970214559         2.657789249
     4.125968099         3.970214559         2.657789249
     0.000000000         0.000000000         3.986683226
     2.750645399         0.000000000         3.986683226
     1.375322700         2.382128792         3.986683226
     4.125968099         2.382128792         3.986683226
     1.375322741         0.794042954         4.578383070
