BeH2                                    
   1.0000000000000000     
    10.3250000476999997    0.0000000000000000    0.0000000000000000
     0.0000000000000000   10.3250000476999997    0.0000000000000000
     0.0000000000000000    0.0000000000000000   10.3250000476999997
   H    Be
     2     1
Direct
  0.6297190521927781  0.5000000000145306  0.5000000000145306
  0.3702809382478996  0.5000000000145306  0.5000000000145306
  0.5000000000145306  0.5000000000145306  0.5000000000145306

  0.00000000E+00  0.00000000E+00  0.00000000E+00
  0.00000000E+00  0.00000000E+00  0.00000000E+00
  0.00000000E+00  0.00000000E+00  0.00000000E+00
