H in 10x10x10 box centered
1.0
10.0000000000   0.0000000000   0.0000000000
0.0000000000   10.0000000000   0.0000000000
0.0000000000   0.0000000000   10.0000000000
He
1
Direct
0.5000000000   0.5000000000   0.5000000000
