Pd  H 
1.0
        5.5012907982         0.0000000000         0.0000000000
        2.7506453991         4.7642575848         0.0000000000
        0.0000000000         0.0000000000        36.7376785278
   Pd    H
   16    2
Cartesian
     0.000000000         0.000000000        15.000000071
     2.750645399         0.000000000        15.000000071
     1.375322700         2.382128792        15.000000071
     4.125968099         2.382128792        15.000000071
     1.375322741         0.794042954        17.245893231
     4.125968222         0.794042954        17.245893231
     2.750645481         3.176171818        17.245893231
     5.501290962         3.176171818        17.245893231
     5.501290716         1.588085909        19.491786391
     2.750645481         1.588085909        19.491786391
     6.876613334         3.970214559        19.491786391
     4.125968099         3.970214559        19.491786391
     0.000000000         0.000000000        21.737678457
     2.750645399         0.000000000        21.737678457
     1.375322700         2.382128792        21.737678457
     4.125968099         2.382128792        21.737678457
     1.375322741         0.794042954        22.737678462
     5.501290962         3.176171818        22.737678462
