Pd  H 
 1.0000000000000000
     5.5012907576313399    0.0000000000000000    0.0000000000000000
     2.7506453788156700    4.7642575497132809    0.0000000000000000
     0.0000000000000000    0.0000000000000000   36.7376776414429358
 Pd  H  
  16   2
Direct
  0.0000000000000000  0.0000000000000000  0.4083001692812189
  0.4999999999999999  0.0000000000000000  0.4083001692812189
  0.0000000000000000  0.5000000000000000  0.4083001692812189
  0.5000000000000000  0.5000000000000000  0.4083001692812189
  0.1666666666666667  0.1666666666666667  0.4694333897604062
  0.6666666666666665  0.1666666666666667  0.4694333897604062
  0.1666666666666667  0.6666666666666666  0.4694333897604062
  0.6666666666666666  0.6666666666666666  0.4694333897604062
  0.8333333333333334  0.3333333333333333  0.5305666102395936
  0.3333333333333333  0.3333333333333333  0.5305666102395936
  0.8333333333333333  0.8333333333333333  0.5305666102395936
  0.3333333333333334  0.8333333333333333  0.5305666102395936
  0.0000000000000000  0.0000000000000000  0.5916998307187811
  0.4999999999999999  0.0000000000000000  0.5916998307187811
  0.0000000000000000  0.5000000000000000  0.5916998307187811
  0.5000000000000000  0.5000000000000000  0.5916998307187811
  0.1666666666666667  0.1666666666666667  0.6189198420041957
  0.6666666666666666  0.6666666666666666  0.6189198420041957
